% File represents an instance of a Composite Structure problem to be solved by a CP framework
% Created on 2025-03-26 10:41:25.919
T = 50;
n = 16;
m = 24;
edges = [(1, 2),
(5, 6),
(9, 10),
(13, 14),
(2, 3),
(6, 7),
(10, 11),
(15, 14),
(3, 4),
(7, 8),
(12, 11),
(16, 15),
(1, 5),
(5, 9),
(9, 13),
(2, 6),
(6, 10),
(10, 14),
(3, 7),
(7, 11),
(15, 11),
(8, 4),
(12, 8),
(16, 12)];
counts = [|14, 14, 14, 8,
|14, 14, 14, 4,
|14, 8, 14, 4,
|14, 4, 14, 2,
|14, 10, 14, 6,
|14, 10, 14, 4,
|14, 8, 14, 2,
|14, 6, 14, 2,
|14, 8, 14, 2,
|14, 6, 14, 2,
|14, 2, 14, 2,
|14, 8, 14, 2,
|12, 6, 12, 2,
|12, 4, 12, 2,
|14, 6, 14, 2,
|14, 12, 14, 2|];
